NAME : n60w120.003.541.tour
COMMENT : Length = 541
COMMENT : Found by LKH [Keld Helsgaun] Tue May  2 05:47:32 2017
TYPE : TOUR
DIMENSION : 61
TOUR_SECTION
1
19
57
13
35
15
2
32
23
38
20
30
34
21
50
46
16
41
39
53
49
6
8
9
60
26
27
14
47
45
12
18
4
25
10
28
56
48
52
42
17
36
43
44
24
40
22
51
7
29
55
33
31
58
59
37
61
5
11
54
3
-1
EOF
